\ENCODING=ISO-8859-1
\Problem name: mockup6

Minimize
 obj1: x(1,2) + 2 x(1,3) + 2 x(1,4) + 3 x(1,5) + 4 x(1,6) + x(2,3) + x(2,4)
       + 2 x(2,5) + 3 x(2,6) + 2 x(3,4) + x(3,5) + 2 x(3,6) + x(4,5) + 2 x(4,6)
       + x(5,6)
Subject To
 constraint(1): x(1,2) + x(1,3) + x(1,4) + x(1,5) + x(1,6)  = 2
 constraint(2): x(1,2) + x(2,3) + x(2,4) + x(2,5) + x(2,6)  = 2
 constraint(3): x(1,3) + x(2,3) + x(3,4) + x(3,5) + x(3,6)  = 2
 constraint(4): x(1,4) + x(2,4) + x(3,4) + x(4,5) + x(4,6)  = 2
 constraint(5): x(1,5) + x(2,5) + x(3,5) + x(4,5) + x(5,6)  = 2
 constraint(6): x(1,6) + x(2,6) + x(3,6) + x(4,6) + x(5,6)  = 2
Bounds
 0 <= x(1,2) <= 1
 0 <= x(1,3) <= 1
 0 <= x(1,4) <= 1
 0 <= x(1,5) <= 1
 0 <= x(1,6) <= 1
 0 <= x(2,3) <= 1
 0 <= x(2,4) <= 1
 0 <= x(2,5) <= 1
 0 <= x(2,6) <= 1
 0 <= x(3,4) <= 1
 0 <= x(3,5) <= 1
 0 <= x(3,6) <= 1
 0 <= x(4,5) <= 1
 0 <= x(4,6) <= 1
 0 <= x(5,6) <= 1
Binaries
 x(1,2)  x(1,3)  x(1,4)  x(1,5)  x(1,6)  x(2,3)  x(2,4)  x(2,5)  x(2,6) 
 x(3,4)  x(3,5)  x(3,6)  x(4,5)  x(4,6)  x(5,6) 
End
